50
    1    44    45
    2    38    43
    3    19    17
    4    49    50
    5    46    41
    6    38    41
    7    19    20
    8    32    31
    9    49    46
   10     5     9
   11     2     7
   12    54    50
   13    48    43
   14    16    11
   15     3     6
   16     7     4
   17     8    10
   18    23    25
   19    10     8
   20     7     7
   21     9    14
   22    14    13
   23     6     1
   24    49    46
   25    55    50
   26    21    21
   27    40    45
   28    17    17
   29    44    39
   30     7     4
   31    49    45
   32    41    41
   33    29    25
   34     9    14
   35    49    45
   36     9    12
   37    54    49
   38    15    18
   39    37    37
   40    22    26
   41    14    16
   42    28    23
   43    47    47
   44     7     9
   45    13    16
   46    44    44
   47    49    45
   48    26    29
   49    11    16
   50     3     7
885
